Route #1: 16 67 104 76 92 4
Route #2: 107 69 99 5 88 81 120 79
Route #3: 55 23 47 34 22 35 3 49 7 20
Route #4: 127 72 105 77 80 11 93 117 96 50 115 75
Route #5: 15 118 100 43 70 98 32 126
Route #6: 91 45 2 24 60 19 65
Route #7: 87 89 114 28 53 51
Route #8: 61 78 36 58 14 57 63
Route #9: 94 40 26 85 44 31 68
Route #10: 90 83 125 10 64 21
Route #11: 8 46 30 112 95 6
Route #12: 122 102 59 41 56 42 62 86 18 111 129
Route #13: 124 82 37 108 123 116
Route #14: 27 66 106 12 109 113 33
Route #15: 48 128 71 54
Route #16: 103 73 101 74 97 13 17
Route #17: 38 9 121 52 110 84
Route #18: 39 119 29 25
